
  22   10
  10   10   10   10   10   10   10   10   10   10

   0   0   0   0   0   0   0   0   0   0   0   8 2 3 16 17 18 19 20 21 
   3  10   0   0   0   0   0   0   0   0   0   8 15 14 13 12 10 7 5 4 
   2  10   0   0   0   0   0   0   0   0   0   6 11 9 8 6 5 4 
   8   0   0   0   0   0  10   0   0   0   0   1 22
   3  10   0   0   0   0   0   0   0   0   0   1 22
   2   0   0   0  10   0   0   0   0   0   0   1 22
   2   0   0   0   0   0   0   0  10   0   0   1 22
   8  10   0   0   0   0   0   0   0   0   0   1 22
  10  10   0   0   0   0   0   0   0   0   0   1 22
  10   0   0   0   0   0   0   0   0  10   0   1 22
   7  10   0   0   0   0   0   0   0   0   0   1 22
   7   0   0  10   0   0   0   0   0   0   0   1 22
   6   0   0   0   0   0  10   0   0   0   0   1 22
   9   0   0  10   0   0   0   0   0   0   0   1 22
   1   0   0   0  10   0   0   0   0   0   0   1 22
   9   0   0   0   0   0   0  10   0   0   0   1 22
   2   0   0   0   0   0   0   0   0   0  10   1 22
   1   0   0   0   0   0   0   0  10   0   0   1 22
   4   0   0   0  10   0   0   0   0   0   0   1 22
   4   0   0   0   0   0  10   0   0   0   0   1 22
   7   0   0   0   0   0   0  10   0   0   0   1 22
   0   0   0   0   0   0   0   0   0   0   0   0 
